&GLOBAL
  PRINT_LEVEL MEDIUM
  PROJECT GROMACS
  RUN_TYPE ENERGY
&END GLOBAL
&FORCE_EVAL
  METHOD QMMM
  &DFT
    CHARGE -1
    MULTIPLICITY 1
    BASIS_SET_FILE_NAME  BASIS_MOLOPT
    POTENTIAL_FILE_NAME  POTENTIAL
    &MGRID
      NGRIDS 5
      CUTOFF 550
      REL_CUTOFF 80
      COMMENSURATE
    &END MGRID
    &SCF
      SCF_GUESS RESTART
      EPS_SCF 5.0E-8
      MAX_SCF 20
      &OT  T
        MINIMIZER  DIIS
        STEPSIZE   0.15
        PRECONDITIONER FULL_ALL
      &END OT
      &OUTER_SCF  T
        MAX_SCF 20
        EPS_SCF 5.0E-8
      &END OUTER_SCF
    &END SCF
    &XC
      DENSITY_CUTOFF     1.0E-12
      GRADIENT_CUTOFF    1.0E-12
      TAU_CUTOFF         1.0E-12
      &XC_FUNCTIONAL PBE
      &END XC_FUNCTIONAL
    &END XC
    &QS
     METHOD GPW
     EPS_DEFAULT 1.0E-10
     EXTRAPOLATION ASPC
     EXTRAPOLATION_ORDER  4
    &END QS
  &END DFT
  &QMMM
    &CELL
      ABC 25.000 25.000 25.000
      PERIODIC XYZ
    &END CELL
    ECOUPL GAUSS
    USE_GEEP_LIB 12
    &PERIODIC
      GMAX     1.0E+00
      &MULTIPOLE ON
         RCUT     1.0E+01
         EWALD_PRECISION     1.0E-06
      &END
    &END PERIODIC
    &QM_KIND H  
      MM_INDEX 957 960 962 964 966 969 2303 2304
    &END QM_KIND
    &QM_KIND C  
      MM_INDEX 951 953 954 956 958 959 961 963 965 967 2302 2305
    &END QM_KIND
    &QM_KIND N  
      MM_INDEX 952 970
    &END QM_KIND
    &QM_KIND O  
      MM_INDEX 955 968 2306 2307
    &END QM_KIND
    &LINK
      QM_INDEX 951
      MM_INDEX 949
    &END LINK
    &LINK
      QM_INDEX 970
      MM_INDEX 971
    &END LINK
    &LINK
      QM_INDEX 2302
      MM_INDEX 2300
    &END LINK
  &END QMMM
  &MM
    &FORCEFIELD
      DO_NONBONDED FALSE
    &END FORCEFIELD
    &POISSON
      &EWALD
        EWALD_TYPE NONE
      &END EWALD
    &END POISSON
  &END MM
  &SUBSYS
    &CELL
      A 78.068 0.000 0.000
      B 0.000 78.068 0.000
      C 0.000 0.000 78.068
      PERIODIC XYZ
    &END CELL
    &TOPOLOGY
      COORD_FILE_NAME ../cp2k.pdb
      COORD_FILE_FORMAT PDB
      CHARGE_EXTENDED TRUE
      CONNECTIVITY OFF
      &GENERATE
         &ISOLATED_ATOMS
            LIST 1..46946
         &END
      &END GENERATE
    &END TOPOLOGY
    &KIND H  
      ELEMENT H  
      BASIS_SET DZVP-MOLOPT-GTH
      POTENTIAL GTH-PBE
    &END KIND
    &KIND C  
      ELEMENT C  
      BASIS_SET DZVP-MOLOPT-GTH
      POTENTIAL GTH-PBE
    &END KIND
    &KIND N  
      ELEMENT N  
      BASIS_SET DZVP-MOLOPT-GTH
      POTENTIAL GTH-PBE
    &END KIND
    &KIND O  
      ELEMENT O  
      BASIS_SET DZVP-MOLOPT-GTH
      POTENTIAL GTH-PBE
    &END KIND
  &END SUBSYS
&END FORCE_EVAL
